% From JaCoP's nonogramRepository/data085.nin
 rows = 25;
 row_rule_len = 5;
 row_rules = array2d(1..rows, 1..row_rule_len, 
[
 0,0,0,1,1,
 0,0,1,17,1,
 0,0,0,0,25,
 0,1,1,1,1,
 0,3,2,2,3,
 0,3,2,2,3,
 3,1,11,1,3,
 3,1,5,1,3,
 0,0,5,3,5,
 0,0,5,1,5,
 3,1,3,1,3,
 0,0,1,5,1,
 0,0,0,0,5,
 0,0,0,0,17,
 0,0,0,1,1,
 0,0,1,15,1,
 0,0,1,17,1,
 0,1,7,7,1,
 1,5,1,5,1,
 1,3,5,3,1,
 1,2,9,2,1,
 1,2,11,2,1,
 1,1,11,1,1,
 1,1,13,1,1,
 0,0,3,13,3
]);

 cols = 25;
 col_rule_len = 5;
 col_rules = array2d(1..cols, 1..col_rule_len, 
[
 0,0,0,1,7,
 0,0,0,0,11,
 0,0,1,7,10,
 0,1,2,1,1,
 0,2,6,1,9,
 0,0,4,1,7,
 2,2,1,5,2,
 2,2,1,4,4,
 2,1,1,4,5,
 2,1,1,3,5,
 2,2,3,3,6,
 2,3,4,2,6,
 0,2,8,2,7,
 2,3,4,2,6,
 2,2,3,3,6,
 2,1,1,3,5,
 2,1,1,4,5,
 2,2,1,4,4,
 2,2,1,5,2,
 0,0,4,1,7,
 0,2,6,1,9,
 0,1,2,1,1,
 0,0,1,7,10,
 0,0,0,0,11,
 0,0,0,1,7
]);

